set T := 0 1 2 3;
set S := 0 1 2 3 4 5 6 7 8 9 10 11 12 13 14;

param M1 := 100;
param M2 := 100;
param Tnum := 3;

param c: 0  1  2  3  4  5  6  7  8  9 10 11 12 13 14 :=
0        1  0  0  0  0  0  0  0  0  0  0  0  0  0  0
1        0  1  1  0  0  0  0  0  0  0  0  0  0  0  0
2        0  0  0  1  1  1  1  0  0  0  0  0  0  0  0
3        0  0  0  0  0  0  0  1  1  1  1  1  1  1  1
;

param ps :=
0 0
1 0
2 0
3 1
4 1
5 2
6 2
7 3
8 3
9 4
10 4
11 5
12 5
13 6
14 6
;

param price :=
0 100
1 100
2 100
3 100
;

param prod: 0  1  2  3  4  5  6  7  8  9 10 11 12 13 14 :=
0           1.0  0  0  0  0  0  0  0  0  0  0  0  0  0  0
1           0  0.8  0.2  0  0  0  0  0  0  0  0  0  0  0  0
2           0  0  0  0.1  0.2  0.3  0.4  0  0  0  0  0  0  0  0
3           0  0  0  0  0  0  0  0.1  0.1  0.2  0.2  0.1  0.1  0.1  0.1
;

param v: 0  1  2  3  4  5  6  7  8  9 10 11 12 13 14 :=
0           1.0  0  0  0  0  0  0  0  0  0  0  0  0  0  0
1           0  0.8  0.2  0  0  0  0  0  0  0  0  0  0  0  0
2           0  0  0  0.1  0.2  0.3  0.4  0  0  0  0  0  0  0  0
3           0  0  0  0  0  0  0  0.1  0.1  0.2  0.2  0.1  0.1  0.1  0.1
;

param C := 0.0;

param cpd := 10.0;

param allow_prod_1 :=
0 0.05
1 0.05
2 0.05
3 0.05
;

param allow_prod_2 :=
0 0.05
1 0.05
2 0.05
3 0.05
;

param allow_v := 10;
